120
150
45
59
59
51
40
55
52
46
40
46
55
47
46
55
59
47
55
43
45
58
50
44
52
40
50
54
46
60
50
49
56
60
40
47
45
45
55
50
46
57
48
47
55
60
50
50
54
47
40
52
57
54
46
54
40
60
45
54
53
47
47
45
56
58
46
59
48
46
50
54
43
46
42
56
50
46
44
51
53
57
50
43
59
48
52
52
46
59
59
46
54
60
50
47
43
41
51
52
47
54
51
43
50
54
60
59
58
43
48
51
56
45
59
46
44
45
43
46
46
60
